letting n =  10
letting blocks =  [[1, 2], [1, 7], [1, 8], [1, 9], [1, 10], [2, 1], [2, 3], [2, 4], [2, 6], [2, 7], [3, 1], [3, 3], [3, 6], [3, 7], [3, 8], [3, 10], [4, 2], [4, 3], [4, 4], [4, 5], [4, 8], [4, 9], [5, 1], [5, 2], [5, 4], [5, 5], [5, 7], [5, 10], [6, 1], [6, 2], [6, 3], [6, 6], [6, 7], [6, 9], [7, 2], [7, 4], [7, 5], [7, 8], [7, 9], [7, 10], [8, 3], [8, 4], [8, 5], [8, 6], [8, 9], [8, 10], [9, 1], [9, 2], [9, 5], [9, 7], [9, 8], [9, 10], [10, 1], [10, 4], [10, 5], [10, 6], [10, 8], [10, 9]]
